9,1,4,1,7,1,2,1,4,2,12,1,13,3,5,1,3,2,10,3,1,1,8,4,4,4;13,1,11,2,11,3,2,2,8,3,7,2,10,2,12,2,5,2,10,4,11,4,1,2,2,4,3,4,6,4;11,1,10,1,6,1,4,3,2,3,3,1,7,3,9,3,12,3,3,3,1,3,6,3;8,1,8,2,13,2,9,2,13,4,7,4,9,4,5,3,5,4,6,2,12,4,1,4;
